Version identifier: 12.10.0.0 | 2019-11-26 | 843d4de
CPXPARAM_WorkMem                                 28672
Tried aggregator 2 times.
MIP Presolve modified 55 coefficients.
Aggregator did 45 substitutions.
Reduced MIP has 245 rows, 300 columns, and 1135 nonzeros.
Reduced MIP has 300 binaries, 0 generals, 0 SOSs, and 0 indicators.
Presolve time = 0,00 sec. (1,51 ticks)
Found incumbent of value 225,000000 after 0,01 sec. (2,33 ticks)
Probing time = 0,00 sec. (0,43 ticks)
Tried aggregator 1 time.
Detecting symmetries...
MIP Presolve eliminated 60 rows and 0 columns.
MIP Presolve added 120 rows and 0 columns.
Reduced MIP has 305 rows, 300 columns, and 1195 nonzeros.
Reduced MIP has 300 binaries, 0 generals, 0 SOSs, and 0 indicators.
Presolve time = 0,00 sec. (1,52 ticks)
Probing time = 0,00 sec. (0,42 ticks)
Clique table members: 775.
MIP emphasis: balance optimality and feasibility.
MIP search method: dynamic search.
Parallel mode: deterministic, using up to 16 threads.
Root relaxation solution time = 0,00 sec. (2,03 ticks)

        Nodes                                         Cuts/
   Node  Left     Objective  IInf  Best Integer    Best Bound    ItCnt     Gap

*     0+    0                          225,0000        0,0000           100,00%
*     0+    0                          115,0000        0,0000           100,00%
*     0+    0                          111,0000        0,0000           100,00%
*     0+    0                          107,0000        0,0000           100,00%
*     0+    0                          105,0000        0,0000           100,00%
      0     0       47,7500   216      105,0000       47,7500      198   54,52%
      0     0       47,7500   216      105,0000     Cuts: 136      277   54,52%
      0     0       48,7345   216      105,0000     Cuts: 176      408   53,59%
      0     0       49,5351   216      105,0000     Cuts: 142      508   52,82%
      0     0       50,0995   216      105,0000     Cuts: 176      617   52,29%
      0     0       50,3744   216      105,0000     Cuts: 155      747   52,02%
      0     0       57,3046   216      105,0000     Cuts: 176     1098   45,42%
*     0+    0                           99,0000       57,3046            42,12%
      0     0       57,7910   216       99,0000     Cuts: 176     1198   41,63%
      0     0       57,9488   216       99,0000      Cuts: 42     1271   41,47%
      0     0       58,2865   216       99,0000      Cuts: 33     1385   41,12%
      0     0       58,5792   216       99,0000     Cuts: 110     1510   40,83%
      0     0       58,7695   216       99,0000      Cuts: 38     1611   40,64%
      0     0       58,8566   216       99,0000      Cuts: 58     1704   40,55%
      0     0       58,9554   216       99,0000  ZeroHalf: 35     1815   40,45%
      0     0       59,0783   216       99,0000     Cuts: 114     1932   40,32%
      0     0       59,2451   216       99,0000      Cuts: 92     2047   40,16%
      0     0       60,3993   216       99,0000      Cuts: 77     2293   38,99%
      0     0       60,7797   216       99,0000     Cuts: 149     2465   38,61%
      0     0       61,0355   216       99,0000      Cuts: 82     2601   38,35%
      0     0       61,1922   216       99,0000     Cuts: 114     2750   38,19%
      0     0       61,3245   216       99,0000      Cuts: 75     2880   38,06%
      0     0       61,4009   216       99,0000      Cuts: 67     2989   37,98%
      0     0       61,5035   216       99,0000      Cuts: 92     3118   37,88%
      0     0       61,5835   216       99,0000      Cuts: 55     3240   37,79%
      0     0       61,6365   216       99,0000      Cuts: 76     3330   37,74%
      0     0       61,7199   216       99,0000      Cuts: 79     3495   37,66%
      0     0       61,7738   216       99,0000      Cuts: 76     3614   37,60%
      0     0       61,8071   216       99,0000      Cuts: 53     3708   37,19%
      0     0       62,0400   216       99,0000     Cuts: 112     3918   37,19%
      0     0       62,2918   216       99,0000     Cuts: 127     4107   37,08%
      0     0       62,4887   216       99,0000      Cuts: 67     4304   36,88%
      0     0       62,6166   216       99,0000      Cuts: 98     4444   36,70%
      0     0       62,7619   216       99,0000      Cuts: 86     4556   36,60%
      0     0       62,8733   216       99,0000      Cuts: 83     4689   36,49%
      0     0       62,9261   216       99,0000      Cuts: 75     4809   36,44%
      0     0       62,9853   216       99,0000      Cuts: 73     4943   36,38%
      0     0       63,0313   216       99,0000      Cuts: 59     5054   36,33%
      0     0       63,0775   216       99,0000      Cuts: 34     5143   36,29%
      0     0       63,1072   216       99,0000      Cuts: 87     5251   36,26%
      0     0       63,1353   216       99,0000      Cuts: 80     5365   36,23%
      0     0       63,1782   216       99,0000      Cuts: 66     5539   36,18%
      0     0       63,2052   216       99,0000      Cuts: 50     5627   36,16%
      0     0       63,2311   216       99,0000      Cuts: 46     5737   36,13%
      0     0       63,2444   216       99,0000      Cuts: 44     5825   36,12%
      0     2       63,2444   284       99,0000       63,2444     5825   36,12%
Elapsed time = 1,32 sec. (933,54 ticks, tree = 0,02 MB, solutions = 6)
   1662  1093       97,0373    75       99,0000       70,3123    69134   28,98%
   3411  2143        cutoff             99,0000       82,3758   162061   16,79%

Performing restart 1

Repeating presolve.
Tried aggregator 2 times.
MIP Presolve eliminated 29 rows and 16 columns.
MIP Presolve added 24 rows and 0 columns.
MIP Presolve modified 16 coefficients.
Aggregator did 4 substitutions.
Reduced MIP has 296 rows, 280 columns, and 1089 nonzeros.
Reduced MIP has 280 binaries, 0 generals, 0 SOSs, and 0 indicators.
Presolve time = 0,00 sec. (1,49 ticks)
Tried aggregator 1 time.
Reduced MIP has 296 rows, 280 columns, and 1089 nonzeros.
Reduced MIP has 280 binaries, 0 generals, 0 SOSs, and 0 indicators.
Presolve time = 0,00 sec. (0,92 ticks)
Represolve time = 0,03 sec. (19,84 ticks)
   4487     0       63,4673   280       99,0000      Cuts: 43   227230   14,86%
   4487     0       63,7107   280       99,0000      Cuts: 62   227447   14,86%
   4487     0       63,8563   280       99,0000      Cuts: 67   227630   14,86%
   4487     0       64,1984   280       99,0000      Cuts: 68   227841   14,86%
   4487     2       64,1984   280       99,0000       84,2860   227841   14,86%
   4498    11       68,7076   242       99,0000       84,2860   230138   14,86%
   5423   651       81,6456   185       99,0000       84,2860   289558   14,86%
   6637  1639        cutoff             99,0000       84,2860   354119   14,86%
   7919  2575       88,6562   165       99,0000       84,2860   429002   14,86%
   9548  3456       90,3772   206       99,0000       84,2860   491654   14,86%

Performing restart 2

Repeating presolve.
Tried aggregator 1 time.
Reduced MIP has 296 rows, 280 columns, and 1089 nonzeros.
Reduced MIP has 280 binaries, 0 generals, 0 SOSs, and 0 indicators.
Presolve time = 0,00 sec. (0,65 ticks)
Tried aggregator 1 time.
Reduced MIP has 296 rows, 280 columns, and 1089 nonzeros.
Reduced MIP has 280 binaries, 0 generals, 0 SOSs, and 0 indicators.
Presolve time = 0,00 sec. (0,92 ticks)
Represolve time = 0,03 sec. (21,67 ticks)
  10148     0       64,7477   280       99,0000      Cuts: 61   565602   14,86%
  10148     0       65,0172   280       99,0000      Cuts: 77   565797   14,86%
  10148     0       65,2710   280       99,0000      Cuts: 81   565981   14,86%
  10148     0       65,4108   280       99,0000      Cuts: 77   566114   14,86%
  10148     0       65,5744   280       99,0000      Cuts: 81   566306   14,86%
  10148     0       65,7160   280       99,0000      Cuts: 86   566458   14,86%
  10148     2       65,7160   280       99,0000       84,2860   566458   14,86%
  17106  2840       96,0657   152       99,0000       91,1334   828545    7,95%
Elapsed time = 6,14 sec. (5455,30 ticks, tree = 8,14 MB, solutions = 6)

Clique cuts applied:  18
Cover cuts applied:  245
Flow cuts applied:  3
Mixed integer rounding cuts applied:  212
Zero-half cuts applied:  76
Lift and project cuts applied:  68
Gomory fractional cuts applied:  12

Root node processing (before b&c):
  Real time             =    1,31 sec. (931,86 ticks)
Parallel b&c, 16 threads:
  Real time             =    5,40 sec. (4867,35 ticks)
  Sync time (average)   =    1,06 sec.
  Wait time (average)   =    0,02 sec.
                          ------------
Total (root+branch&cut) =    6,71 sec. (5799,21 ticks)
